Route #1: 14 5 45 40 31 59 22 21 53 58 28 25 23 39 11 12 15 55 44 63 54 35 42 26 27 24 34 13 36 52 7 3 20 62 43 18
Route #2: 10
Route #3: 48 47 41 4 9 60 16 17 50 32
Route #4: 33 30 49 6 56 61 29
Route #5: 2 19 51 46 38 37 8
Route #6: 1
Route #7: 
Route #8: 57
Route #9: 
Route #10: 
cost 2018.1430467003265
